(set-logic QF_S)
(declare-fun var0 () String)
(declare-fun var1 () String)
(declare-fun var2 () String)
(declare-fun var3 () String)
(declare-fun var4 () String)
(declare-fun var5 () String)
(declare-fun var6 () String)
(declare-fun var7 () String)
(declare-fun var8 () String)
(declare-fun var9 () String)
(declare-fun var10 () String)
(declare-fun var11 () String)
(declare-fun var12 () String)
(declare-fun var13 () String)
(declare-fun var14 () String)
(declare-fun var15 () String)
(declare-fun var16 () String)
(declare-fun var17 () String)
(declare-fun var18 () String)
(declare-fun var19 () String)
(declare-fun var20 () String)
(declare-fun var21 () String)
(declare-fun var22 () String)
(declare-fun var23 () String)
(declare-fun var24 () String)
(declare-fun var25 () String)
(declare-fun var26 () String)
(declare-fun var27 () String)
(declare-fun var28 () String)
(declare-fun var29 () String)
(declare-fun var30 () String)
(declare-fun var31 () String)
(declare-fun var32 () String)
(declare-fun var33 () String)
(declare-fun var34 () String)
(declare-fun var35 () String)
(declare-fun var36 () String)
(declare-fun var37 () String)
(declare-fun var38 () String)
(declare-fun var39 () String)
(declare-fun var40 () String)
(declare-fun var41 () String)
(declare-fun var42 () String)
(declare-fun var43 () String)
(declare-fun var44 () String)
(declare-fun var45 () String)
(declare-fun var46 () String)
(declare-fun var47 () String)
(declare-fun var48 () String)
(declare-fun var49 () String)
(declare-fun var50 () String)
(declare-fun var51 () String)
(declare-fun var52 () String)
(declare-fun var53 () String)
(declare-fun var54 () String)
(declare-fun var55 () String)
(declare-fun var56 () String)
(declare-fun var57 () String)
(declare-fun var58 () String)
(declare-fun var59 () String)
(declare-fun var60 () String)
(assert (= var0 (str.++ var1 var2)))
(assert (= var2 (str.++ var3 var4)))
(assert (= var4 (str.++ var5 var6)))
(assert (= var6 (str.++ var7 var8)))
(assert (= var8 (str.++ var9 var10)))
(assert (= var10 (str.++ var11 var12)))
(assert (= var12 (str.++ var13 var14)))
(assert (= var14 (str.++ var15 var16)))
(assert (= var16 (str.++ var17 var18)))
(assert (= var18 (str.++ var19 var20)))
(assert (= var20 (str.++ var21 var22)))
(assert (= var22 (str.++ var23 var24)))
(assert (= var24 (str.++ var25 var26)))
(assert (= var26 (str.++ var27 var28)))
(assert (= var28 (str.++ var29 var30)))
(assert (= var30 (str.++ var31 var32)))
(assert (= var32 (str.++ var33 var34)))
(assert (= var34 (str.++ var35 var36)))
(assert (= var36 (str.++ var37 var38)))
(assert (= var38 (str.++ var39 var40)))
(assert (= var40 (str.++ var41 var42)))
(assert (= var42 (str.++ var43 var44)))
(assert (= var44 (str.++ var45 var46)))
(assert (= var46 (str.++ var47 var48)))
(assert (= var48 (str.++ var49 var50)))
(assert (= var50 (str.++ var51 var52)))
(assert (= var52 (str.++ var53 var54)))
(assert (= var54 (str.++ var55 var56)))
(assert (= var56 (str.++ var57 var58)))
(assert (= var58 (str.++ var59 var60)))
(assert (= var0 "solution"))
(assert (= "." (str.at var8 787)))
(assert (= "#" (str.at var31 808)))
(assert (= "g" (str.at var45 770)))
(assert (= "J" (str.at var54 351)))
(assert (= "4" (str.at var19 227)))
(assert (= "4" (str.at var6 427)))
(assert (= "b" (str.at var54 761)))
(assert (= "K" (str.at var24 515)))
(assert (= "t" (str.at var50 215)))
(assert (= "k" (str.at var35 980)))
(assert (= "%" (str.at var24 332)))
(assert (= "9" (str.at var9 351)))
(assert (= "." (str.at var44 58)))
(assert (= "<" (str.at var30 816)))
(assert (= "N" (str.at var5 32)))
(assert (= "y" (str.at var35 141)))
(assert (= "p" (str.at var50 447)))
(assert (= "d" (str.at var9 875)))
(assert (= "m" (str.at var42 149)))
(assert (= "U" (str.at var16 740)))
(assert (= "_" (str.at var43 927)))
(assert (= "f" (str.at var43 437)))
(assert (= "I" (str.at var59 435)))
(assert (= "8" (str.at var15 384)))
(assert (= "K" (str.at var23 144)))
(assert (= "c" (str.at var26 611)))
(assert (= "`" (str.at var17 434)))
(assert (= "f" (str.at var46 449)))
(assert (= "#" (str.at var17 785)))
(assert (= "+" (str.at var26 445)))
(assert (= "8" (str.at var2 920)))
(assert (= "1" (str.at var23 320)))
(assert (= "}" (str.at var27 921)))
(assert (= "8" (str.at var6 491)))
(assert (= "x" (str.at var35 392)))
(assert (= "w" (str.at var55 683)))
(assert (= "W" (str.at var9 813)))
(assert (= "T" (str.at var6 277)))
(assert (= "7" (str.at var55 146)))
(assert (= "}" (str.at var31 261)))
(assert (= "T" (str.at var45 137)))
(assert (= "\\" (str.at var54 759)))
(assert (= """" (str.at var58 666)))
(assert (= "U" (str.at var45 616)))
(assert (= "c" (str.at var35 781)))
(assert (= "-" (str.at var33 456)))
(assert (= "S" (str.at var11 335)))
(assert (= "/" (str.at var33 44)))
(assert (= "l" (str.at var56 235)))
(assert (= "q" (str.at var37 100)))
(assert (= "<" (str.at var17 223)))
(assert (= "P" (str.at var47 421)))
(assert (= "t" (str.at var43 179)))
(assert (= "D" (str.at var6 577)))
(assert (= "9" (str.at var28 51)))
(assert (= "N" (str.at var32 903)))
(assert (= "|" (str.at var26 531)))
(assert (= "a" (str.at var34 114)))
(assert (= "c" (str.at var49 553)))
(assert (= "_" (str.at var27 25)))
(assert (= "j" (str.at var1 445)))
(assert (= "<" (str.at var20 255)))
(assert (= "J" (str.at var25 253)))
(assert (= "M" (str.at var48 977)))
(assert (= "b" (str.at var27 268)))
(assert (= "%" (str.at var35 358)))
(assert (= "G" (str.at var57 944)))
(assert (= "I" (str.at var44 579)))
(assert (= "+" (str.at var6 91)))
(assert (= "j" (str.at var6 506)))
(assert (= "F" (str.at var22 643)))
(assert (= "5" (str.at var5 167)))
(assert (= "r" (str.at var20 11)))
(assert (= "!" (str.at var17 935)))
(assert (= "6" (str.at var46 130)))
(assert (= "!" (str.at var38 157)))
(assert (= "}" (str.at var8 667)))
(assert (= "8" (str.at var11 193)))
(assert (= "5" (str.at var24 680)))
(assert (= "5" (str.at var30 99)))
(assert (= ";" (str.at var30 876)))
(assert (= "B" (str.at var51 532)))
(assert (= "g" (str.at var5 955)))
(assert (= "J" (str.at var26 338)))
(assert (= "O" (str.at var40 387)))
(assert (= "Q" (str.at var10 826)))
(assert (= "b" (str.at var16 513)))
(assert (= "N" (str.at var29 830)))
(assert (= "*" (str.at var15 711)))
(assert (= "r" (str.at var14 912)))
(assert (= "l" (str.at var59 833)))
(assert (= "\\" (str.at var16 420)))
(assert (= "o" (str.at var39 950)))
(assert (= "p" (str.at var32 200)))
(assert (= "+" (str.at var23 58)))
(assert (= "B" (str.at var53 314)))
(assert (= "t" (str.at var42 720)))
(assert (= "5" (str.at var26 628)))
(assert (= """" (str.at var2 436)))
(assert (= "3" (str.at var28 839)))
(assert (= "e" (str.at var32 165)))
(assert (= "e" (str.at var28 803)))
(assert (= "F" (str.at var39 180)))
(assert (= ">" (str.at var16 451)))
(assert (= "g" (str.at var24 254)))
(assert (= "0" (str.at var41 113)))
(assert (= "\\" (str.at var16 417)))
(assert (= "c" (str.at var45 736)))
(assert (= "l" (str.at var55 415)))
(assert (= "h" (str.at var4 788)))
(assert (= "^" (str.at var24 401)))
(assert (= "K" (str.at var27 384)))
(assert (= "H" (str.at var42 767)))
(assert (= "R" (str.at var11 390)))
(assert (= "[" (str.at var4 450)))
(assert (= "8" (str.at var1 967)))
(assert (= "Q" (str.at var53 772)))
(assert (= ";" (str.at var49 416)))
(assert (= "C" (str.at var12 641)))
(assert (= "3" (str.at var51 844)))
(assert (= "3" (str.at var57 227)))
(assert (= "s" (str.at var52 145)))
(assert (= "x" (str.at var19 323)))
(assert (= ":" (str.at var30 132)))
(assert (= "N" (str.at var52 582)))
(assert (= "O" (str.at var39 49)))
(assert (= "i" (str.at var51 398)))
(assert (= "P" (str.at var37 617)))
(assert (= "O" (str.at var43 577)))
(assert (= "P" (str.at var58 946)))
(assert (= "I" (str.at var31 254)))
(assert (= "8" (str.at var49 586)))
(assert (= "Y" (str.at var14 756)))
(assert (= "N" (str.at var9 117)))
(assert (= "6" (str.at var6 859)))
(assert (= "F" (str.at var1 307)))
(assert (= "K" (str.at var29 599)))
(assert (= "A" (str.at var28 40)))
(assert (= "^" (str.at var28 92)))
(assert (= "l" (str.at var24 21)))
(assert (= "j" (str.at var40 910)))
(assert (= "e" (str.at var18 390)))
(assert (= "8" (str.at var52 819)))
(assert (= "Q" (str.at var32 829)))
(assert (= "x" (str.at var33 538)))
(assert (= "p" (str.at var15 519)))
(assert (= "4" (str.at var39 91)))
(assert (= "V" (str.at var0 930)))
(assert (= "Q" (str.at var47 66)))
(assert (= "e" (str.at var17 456)))
(assert (= "\\" (str.at var8 483)))
(assert (= "{" (str.at var27 808)))
(assert (= "L" (str.at var32 710)))
(assert (= "*" (str.at var5 283)))
(assert (= "H" (str.at var17 281)))
(assert (= "T" (str.at var7 537)))
(assert (= "8" (str.at var43 690)))
(assert (= "n" (str.at var60 351)))
(assert (= "y" (str.at var37 167)))
(assert (= "r" (str.at var4 628)))
(assert (= "f" (str.at var12 359)))
(assert (= "q" (str.at var59 331)))
(assert (= ";" (str.at var36 917)))
(assert (= ";" (str.at var36 693)))
(assert (= "C" (str.at var7 782)))
(assert (= "/" (str.at var38 105)))
(assert (= "J" (str.at var16 844)))
(assert (= "e" (str.at var40 491)))
(assert (= "b" (str.at var21 619)))
(assert (= "e" (str.at var28 330)))
(assert (= "I" (str.at var33 46)))
(assert (= "E" (str.at var51 962)))
(assert (= "&" (str.at var18 526)))
(assert (= "m" (str.at var48 118)))
(assert (= "+" (str.at var18 875)))
(assert (= "M" (str.at var40 477)))
(assert (= "P" (str.at var21 562)))
(assert (= "|" (str.at var58 977)))
(assert (= ">" (str.at var48 344)))
(assert (= "q" (str.at var9 543)))
(assert (= "T" (str.at var54 982)))
(assert (= "r" (str.at var4 32)))
(assert (= "|" (str.at var56 566)))
(assert (= "|" (str.at var57 260)))
(assert (= "Q" (str.at var25 808)))
(assert (= "+" (str.at var6 850)))
(assert (= "+" (str.at var7 357)))
(assert (= "I" (str.at var25 312)))
(assert (= "<" (str.at var18 874)))
(assert (= "L" (str.at var22 579)))
(assert (= "/" (str.at var16 684)))
(assert (= "z" (str.at var8 314)))
(assert (= "G" (str.at var40 934)))
(assert (= "5" (str.at var13 860)))
(assert (= """" (str.at var47 851)))
(assert (= "R" (str.at var48 242)))
(assert (= "O" (str.at var31 238)))
(assert (= "D" (str.at var22 173)))
(assert (= "#" (str.at var59 686)))
(assert (= "`" (str.at var13 699)))
(assert (= "u" (str.at var40 947)))
(assert (= "2" (str.at var29 522)))
(assert (= "-" (str.at var10 895)))
(assert (= "O" (str.at var1 310)))
(assert (= "y" (str.at var14 113)))
(assert (= "h" (str.at var55 584)))
(assert (= "m" (str.at var4 58)))
(assert (= "&" (str.at var47 634)))
(assert (= "d" (str.at var46 644)))
(assert (= "/" (str.at var13 536)))
(assert (= "K" (str.at var49 613)))
(assert (= "y" (str.at var49 12)))
(assert (= "S" (str.at var9 215)))
(assert (= "}" (str.at var51 24)))
(assert (= "-" (str.at var14 793)))
(assert (= "T" (str.at var20 805)))
(assert (= "b" (str.at var47 280)))
(assert (= "3" (str.at var51 641)))
(assert (= "*" (str.at var23 60)))
(assert (= "*" (str.at var57 180)))
(assert (= "S" (str.at var55 937)))
(assert (= "|" (str.at var7 841)))
(assert (= "<" (str.at var49 890)))
(assert (= "{" (str.at var30 656)))
(assert (= "0" (str.at var54 868)))
(assert (= "m" (str.at var14 486)))
(assert (= "K" (str.at var33 387)))
(assert (= "-" (str.at var34 337)))
(assert (= "m" (str.at var17 98)))
(assert (= "!" (str.at var24 592)))
(assert (= "9" (str.at var19 985)))
(assert (= "\\" (str.at var28 548)))
(assert (= "&" (str.at var5 20)))
(assert (= "K" (str.at var0 897)))
(assert (= "y" (str.at var23 544)))
(assert (= "a" (str.at var53 471)))
(assert (= "!" (str.at var19 585)))
(assert (= "2" (str.at var50 673)))
(assert (= "M" (str.at var26 437)))
(assert (= "Y" (str.at var17 800)))
(assert (= "j" (str.at var54 908)))
(assert (= "!" (str.at var8 808)))
(assert (= "0" (str.at var22 126)))
(assert (= "2" (str.at var5 158)))
(assert (= "R" (str.at var26 927)))
(assert (= """" (str.at var34 347)))
(assert (= "V" (str.at var38 78)))
(assert (= "Q" (str.at var30 218)))
(assert (= "8" (str.at var40 789)))
(assert (= "9" (str.at var11 236)))
(assert (= "R" (str.at var38 484)))
(assert (= "@" (str.at var26 286)))
(assert (= "i" (str.at var35 405)))
(assert (= "s" (str.at var42 291)))
(assert (= "(" (str.at var50 11)))
(assert (= "^" (str.at var48 841)))
(assert (= ";" (str.at var34 853)))
(assert (= "B" (str.at var44 262)))
(assert (= "+" (str.at var6 339)))
(assert (= "7" (str.at var18 121)))
(assert (= "Y" (str.at var44 123)))
(assert (= "6" (str.at var4 940)))
(assert (= "#" (str.at var11 622)))
(assert (= "@" (str.at var28 612)))
(assert (= "f" (str.at var51 433)))
(assert (= "w" (str.at var42 86)))
(assert (= "^" (str.at var57 850)))
(assert (= ";" (str.at var13 590)))
(assert (= "X" (str.at var24 62)))
(assert (= "f" (str.at var12 908)))
(assert (= "o" (str.at var25 834)))
(assert (= "x" (str.at var29 16)))
(assert (= "9" (str.at var39 90)))
(assert (= ":" (str.at var39 76)))
(assert (= "V" (str.at var52 177)))
(assert (= ";" (str.at var51 750)))
(assert (= "m" (str.at var55 388)))
(assert (= "}" (str.at var47 608)))
(assert (= "u" (str.at var10 466)))
(assert (= "(" (str.at var5 342)))
(assert (= "u" (str.at var26 846)))
(assert (= "~" (str.at var25 113)))
(assert (= "g" (str.at var57 43)))
(assert (= "Y" (str.at var60 839)))
(assert (= "v" (str.at var57 980)))
(assert (= "g" (str.at var15 976)))
(assert (= "p" (str.at var6 493)))
(assert (= "V" (str.at var30 662)))
(assert (= "Q" (str.at var0 132)))
(assert (= "Y" (str.at var13 315)))
(assert (= "q" (str.at var23 861)))
(assert (= "D" (str.at var7 430)))
(assert (= "I" (str.at var22 963)))
(assert (= "e" (str.at var0 314)))
(assert (= "v" (str.at var43 378)))
(assert (= "k" (str.at var49 801)))
(assert (= "H" (str.at var58 90)))
(assert (= "3" (str.at var14 151)))
(assert (= "8" (str.at var20 45)))
(assert (= "C" (str.at var23 851)))
(assert (= "l" (str.at var48 113)))
(assert (= "L" (str.at var38 627)))
(assert (= "%" (str.at var11 252)))
(assert (= "W" (str.at var51 298)))
(assert (= "W" (str.at var44 461)))
(assert (= "*" (str.at var53 942)))
(assert (= "D" (str.at var8 622)))
(assert (= "{" (str.at var6 58)))
(assert (= "J" (str.at var60 201)))
(assert (= "`" (str.at var7 661)))
(assert (= "2" (str.at var35 602)))
(assert (= "8" (str.at var58 710)))
(assert (= "o" (str.at var36 761)))
(assert (= ";" (str.at var25 621)))
(assert (= ")" (str.at var42 355)))
(assert (= "C" (str.at var2 785)))
(assert (= "3" (str.at var26 126)))
(assert (= "*" (str.at var28 369)))
(assert (= "?" (str.at var58 923)))
(assert (= "#" (str.at var60 418)))
(assert (= "U" (str.at var45 714)))
(assert (= "a" (str.at var10 783)))
(assert (= "u" (str.at var26 949)))
(assert (= ")" (str.at var1 667)))
(assert (= "~" (str.at var29 289)))
(assert (= "W" (str.at var59 814)))
(assert (= "^" (str.at var29 613)))
(assert (= "7" (str.at var45 235)))
(assert (= "t" (str.at var27 235)))
(assert (= """" (str.at var30 971)))
(assert (= "|" (str.at var4 129)))
(assert (= "s" (str.at var1 502)))
(assert (= "l" (str.at var43 300)))
(assert (= "w" (str.at var23 444)))
(assert (= "H" (str.at var2 858)))
(assert (= "%" (str.at var52 737)))
(assert (= "," (str.at var0 779)))
(assert (= "A" (str.at var55 55)))
(assert (= "U" (str.at var60 96)))
(assert (= "D" (str.at var58 310)))
(assert (= "8" (str.at var34 810)))
(assert (= "p" (str.at var48 137)))
(assert (= "o" (str.at var47 908)))
(assert (= "6" (str.at var31 372)))
(assert (= "I" (str.at var52 886)))
(assert (= "V" (str.at var49 187)))
(assert (= "(" (str.at var56 684)))
(assert (= "P" (str.at var27 648)))
(assert (= ">" (str.at var15 99)))
(assert (= "G" (str.at var19 329)))
(assert (= "-" (str.at var51 17)))
(assert (= "q" (str.at var32 769)))
(assert (= "?" (str.at var45 718)))
(assert (= "7" (str.at var58 59)))
(assert (= "0" (str.at var15 553)))
(assert (= "T" (str.at var1 134)))
(assert (= "=" (str.at var18 139)))
(assert (= "Z" (str.at var8 185)))
(assert (= "L" (str.at var23 100)))
(assert (= "Q" (str.at var7 43)))
(assert (= "T" (str.at var42 242)))
(assert (= "." (str.at var17 861)))
(assert (= "'" (str.at var43 734)))
(assert (= "Z" (str.at var27 334)))
(assert (= "(" (str.at var27 201)))
(assert (= "e" (str.at var27 404)))
(assert (= "m" (str.at var32 31)))
(assert (= "g" (str.at var22 23)))
(assert (= "x" (str.at var10 106)))
(assert (= "k" (str.at var44 28)))
(assert (= "u" (str.at var56 289)))
(assert (= "+" (str.at var44 336)))
(assert (= "." (str.at var35 820)))
(assert (= "I" (str.at var15 923)))
(assert (= "'" (str.at var23 491)))
(assert (= "?" (str.at var1 633)))
(assert (= "G" (str.at var10 209)))
(assert (= "V" (str.at var38 498)))
(assert (= "3" (str.at var45 821)))
(assert (= "`" (str.at var11 635)))
(assert (= "}" (str.at var25 14)))
(assert (= "I" (str.at var0 827)))
(assert (= "P" (str.at var45 749)))
(assert (= "!" (str.at var32 241)))
(assert (= "6" (str.at var53 540)))
(assert (= "Z" (str.at var10 399)))
(assert (= "F" (str.at var31 979)))
(assert (= "!" (str.at var20 374)))
(assert (= "_" (str.at var42 925)))
(assert (= "P" (str.at var46 223)))
(assert (= "O" (str.at var5 721)))
(assert (= "B" (str.at var44 680)))
(assert (= "N" (str.at var13 765)))
(assert (= "r" (str.at var15 848)))
(assert (= "Y" (str.at var28 445)))
(assert (= "6" (str.at var36 317)))
(assert (= "." (str.at var59 20)))
(assert (= "1" (str.at var27 577)))
(assert (= "|" (str.at var59 751)))
(assert (= "p" (str.at var15 850)))
(assert (= "$" (str.at var27 579)))
(assert (= "'" (str.at var59 694)))
(assert (= "I" (str.at var0 218)))
(assert (= "I" (str.at var18 701)))
(assert (= "C" (str.at var6 984)))
(assert (= "7" (str.at var47 189)))
(assert (= ">" (str.at var12 273)))
(assert (= "h" (str.at var38 46)))
(assert (= "M" (str.at var39 614)))
(assert (= "f" (str.at var6 623)))
(assert (= ")" (str.at var45 877)))
(assert (= "J" (str.at var5 153)))
(assert (= "n" (str.at var34 636)))
(assert (= "." (str.at var3 876)))
(assert (= "H" (str.at var52 354)))
(assert (= "?" (str.at var23 589)))
(assert (= "T" (str.at var55 744)))
(assert (= "/" (str.at var1 132)))
(assert (= "T" (str.at var9 825)))
(assert (= "Y" (str.at var33 545)))
(assert (= "%" (str.at var17 66)))
(assert (= "D" (str.at var49 357)))
(assert (= "1" (str.at var56 533)))
(assert (= "M" (str.at var12 182)))
(assert (= "M" (str.at var52 612)))
(assert (= "U" (str.at var33 898)))
(assert (= "P" (str.at var36 309)))
(assert (= "O" (str.at var7 86)))
(assert (= "_" (str.at var27 542)))
(assert (= "M" (str.at var57 237)))
(assert (= "$" (str.at var51 266)))
(assert (= "_" (str.at var11 787)))
(assert (= "=" (str.at var5 748)))
(assert (= "(" (str.at var7 134)))
(assert (= "<" (str.at var43 374)))
(assert (= "S" (str.at var12 259)))
(assert (= "Q" (str.at var41 11)))
(assert (= ")" (str.at var47 88)))
(assert (= "f" (str.at var47 267)))
(assert (= "1" (str.at var8 561)))
(assert (= "!" (str.at var38 630)))
(assert (= "k" (str.at var28 78)))
(assert (= "n" (str.at var52 519)))
(assert (= "(" (str.at var2 460)))
(assert (= "Y" (str.at var5 142)))
(assert (= "v" (str.at var55 642)))
(assert (= ":" (str.at var51 223)))
(assert (= ";" (str.at var5 230)))
(assert (= "#" (str.at var8 889)))
(assert (= "+" (str.at var20 346)))
(assert (= "^" (str.at var59 796)))
(assert (= ")" (str.at var7 137)))
(assert (= "/" (str.at var20 540)))
(assert (= "_" (str.at var39 150)))
(assert (= "<" (str.at var54 911)))
(assert (= "{" (str.at var15 811)))
(assert (= "t" (str.at var39 424)))
(assert (= "v" (str.at var19 603)))
(assert (= "H" (str.at var36 529)))
(assert (= "K" (str.at var26 44)))
(assert (= "!" (str.at var15 132)))
(assert (= "m" (str.at var42 330)))
(assert (= "5" (str.at var57 296)))
(assert (= "Q" (str.at var29 467)))
(assert (= "t" (str.at var7 336)))
(assert (= "L" (str.at var46 456)))
(assert (= "R" (str.at var24 892)))
(assert (= "3" (str.at var53 681)))
(assert (= "m" (str.at var35 581)))
(assert (= "!" (str.at var49 514)))
(assert (= "3" (str.at var13 413)))
(assert (= "O" (str.at var11 968)))
(assert (= "?" (str.at var45 241)))
(assert (= "I" (str.at var10 331)))
(assert (= "s" (str.at var49 718)))
(assert (= "I" (str.at var44 878)))
(assert (= "2" (str.at var16 95)))
(assert (= "8" (str.at var59 167)))
(assert (= "[" (str.at var17 21)))
(assert (= "q" (str.at var23 642)))
(assert (= "," (str.at var1 928)))
(assert (= "d" (str.at var27 100)))
(assert (= ";" (str.at var4 459)))
(assert (= "," (str.at var38 601)))
(assert (= "V" (str.at var26 519)))
(assert (= "|" (str.at var20 817)))
(assert (= "Y" (str.at var51 720)))
(assert (= "=" (str.at var14 757)))
(assert (= "F" (str.at var56 231)))
(assert (= "<" (str.at var6 324)))
(assert (= "<" (str.at var43 49)))
(assert (= "r" (str.at var1 515)))
(assert (= "Z" (str.at var9 828)))
(assert (= "E" (str.at var8 773)))
(assert (= "x" (str.at var6 707)))
(assert (= "G" (str.at var41 334)))
(assert (= "O" (str.at var22 964)))
(assert (= "G" (str.at var39 622)))
(assert (= "b" (str.at var55 467)))
(assert (= "N" (str.at var35 211)))
(assert (= "s" (str.at var35 598)))
(assert (= "=" (str.at var15 391)))
(assert (= "$" (str.at var15 492)))
(assert (= "1" (str.at var51 752)))
(assert (= "K" (str.at var36 336)))
(assert (= "G" (str.at var37 906)))
(assert (= "Y" (str.at var7 88)))
(assert (= "?" (str.at var54 236)))
(assert (= "R" (str.at var11 812)))
(assert (= "a" (str.at var7 659)))
(assert (= "p" (str.at var2 317)))
(assert (= "A" (str.at var23 809)))
(assert (= "Y" (str.at var5 799)))
(assert (= """" (str.at var44 31)))
(assert (= "!" (str.at var11 41)))
(assert (= """" (str.at var32 313)))
(assert (= "v" (str.at var33 713)))
(assert (= "-" (str.at var55 990)))
(assert (= "V" (str.at var44 425)))
(assert (= "'" (str.at var12 221)))
(assert (= ">" (str.at var52 749)))
(assert (= "+" (str.at var9 342)))
(assert (= "u" (str.at var23 469)))
(assert (= "I" (str.at var5 66)))
(assert (= "n" (str.at var28 737)))
(assert (= "w" (str.at var17 29)))
(assert (= "o" (str.at var21 16)))
(assert (= "$" (str.at var22 52)))
(assert (= "2" (str.at var23 143)))
(assert (= ">" (str.at var48 575)))
(assert (= "x" (str.at var13 673)))
(assert (= "(" (str.at var32 511)))
(assert (= "I" (str.at var46 704)))
(assert (= "W" (str.at var28 208)))
(assert (= "D" (str.at var1 666)))
(assert (= "n" (str.at var24 417)))
(assert (= "|" (str.at var53 458)))
(assert (= "9" (str.at var33 330)))
(assert (= "<" (str.at var23 398)))
(assert (= "%" (str.at var33 692)))
(assert (= "x" (str.at var16 958)))
(assert (= "7" (str.at var49 157)))
(assert (= "S" (str.at var6 689)))
(assert (= "x" (str.at var53 427)))
(assert (= "$" (str.at var31 685)))
(assert (= "T" (str.at var47 798)))
(assert (= "A" (str.at var53 779)))
(assert (= ";" (str.at var28 492)))
(assert (= "*" (str.at var33 287)))
(assert (= "1" (str.at var47 696)))
(assert (= "T" (str.at var29 810)))
(assert (= "6" (str.at var40 618)))
(assert (= "<" (str.at var28 809)))
(assert (= "]" (str.at var25 906)))
(assert (= "g" (str.at var27 7)))
(assert (= "&" (str.at var24 350)))
(assert (= "c" (str.at var50 506)))
(assert (= "g" (str.at var60 131)))
(assert (= "6" (str.at var36 668)))
(assert (= "Y" (str.at var42 772)))
(assert (= ")" (str.at var23 344)))
(assert (= "r" (str.at var10 429)))
(assert (= "k" (str.at var2 284)))
(assert (= "2" (str.at var53 753)))
(assert (= "F" (str.at var46 119)))
(assert (= "p" (str.at var41 36)))
(assert (= "p" (str.at var35 592)))
(assert (= "7" (str.at var25 690)))
(assert (= """" (str.at var19 872)))
(assert (= "N" (str.at var32 14)))
(assert (= "2" (str.at var2 420)))
(assert (= "L" (str.at var3 432)))
(assert (= "9" (str.at var6 869)))
(assert (= "!" (str.at var6 268)))
(assert (= "'" (str.at var5 308)))
(assert (= "o" (str.at var39 14)))
(assert (= "I" (str.at var49 407)))
(assert (= "u" (str.at var9 485)))
(assert (= ">" (str.at var3 77)))
(assert (= "\\" (str.at var38 700)))
(assert (= "D" (str.at var48 216)))
(assert (= "1" (str.at var37 344)))
(assert (= "f" (str.at var41 750)))
(assert (= "N" (str.at var23 232)))
(assert (= "(" (str.at var0 421)))
(assert (= "m" (str.at var56 216)))
(assert (= "f" (str.at var7 360)))
(assert (= "/" (str.at var49 344)))
(assert (= "R" (str.at var11 428)))
(assert (= "," (str.at var19 202)))
(assert (= "e" (str.at var42 343)))
(assert (= "y" (str.at var34 248)))
(assert (= "1" (str.at var43 560)))
(assert (= "n" (str.at var38 703)))
(assert (= "h" (str.at var46 289)))
(assert (= "L" (str.at var58 745)))
(assert (= "E" (str.at var45 924)))
(assert (= "," (str.at var46 492)))
(assert (= "'" (str.at var37 316)))
(assert (= "A" (str.at var51 667)))
(assert (= "s" (str.at var40 316)))
(assert (= "u" (str.at var31 623)))
(assert (= "#" (str.at var33 549)))
(assert (= "W" (str.at var30 359)))
(assert (= "#" (str.at var4 661)))
(assert (= "k" (str.at var49 305)))
(assert (= "U" (str.at var55 222)))
(assert (= "b" (str.at var51 366)))
(assert (= "h" (str.at var34 774)))
(assert (= "s" (str.at var31 921)))
(assert (= "E" (str.at var29 897)))
(assert (= "B" (str.at var40 829)))
(assert (= "i" (str.at var10 991)))
(assert (= "P" (str.at var56 750)))
(assert (= "Q" (str.at var0 875)))
(assert (= "b" (str.at var50 381)))
(assert (= "P" (str.at var33 577)))
(assert (= "$" (str.at var46 44)))
(assert (= "m" (str.at var19 623)))
(assert (= "k" (str.at var49 388)))
(assert (= "f" (str.at var29 556)))
(assert (= "(" (str.at var50 695)))
(assert (= "m" (str.at var7 239)))
(assert (= "N" (str.at var28 676)))
(assert (= "N" (str.at var37 793)))
(assert (= "V" (str.at var19 843)))
(assert (= "=" (str.at var36 0)))
(assert (= "^" (str.at var54 931)))
(assert (= "s" (str.at var52 832)))
(assert (= "N" (str.at var46 799)))
(assert (= "W" (str.at var55 633)))
(assert (= "6" (str.at var21 878)))
(assert (= "7" (str.at var26 267)))
(assert (= "+" (str.at var52 883)))
(assert (= "+" (str.at var49 704)))
(assert (= "I" (str.at var9 694)))
(assert (= """" (str.at var45 373)))
(assert (= "j" (str.at var15 845)))
(assert (= "Y" (str.at var14 992)))
(assert (= "g" (str.at var38 252)))
(assert (= "(" (str.at var42 825)))
(assert (= "[" (str.at var23 140)))
(assert (= "0" (str.at var7 640)))
(assert (= ";" (str.at var49 317)))
(assert (= "(" (str.at var32 132)))
(assert (= "W" (str.at var3 910)))
(assert (= "6" (str.at var22 977)))
(assert (= "\\" (str.at var32 592)))
(assert (= "^" (str.at var7 493)))
(assert (= ":" (str.at var10 290)))
(assert (= "!" (str.at var18 405)))
(assert (= "{" (str.at var10 904)))
(assert (= "D" (str.at var48 172)))
(assert (= "$" (str.at var32 57)))
(assert (= "#" (str.at var52 130)))
(assert (= "m" (str.at var29 499)))
(assert (= "," (str.at var58 517)))
(assert (= "n" (str.at var28 664)))
(assert (= "7" (str.at var16 47)))
(assert (= "3" (str.at var31 586)))
(assert (= "2" (str.at var43 631)))
(assert (= "I" (str.at var11 967)))
(assert (= "*" (str.at var49 150)))
(assert (= "Y" (str.at var57 461)))
(assert (= "M" (str.at var32 265)))
(assert (= "e" (str.at var0 160)))
(assert (= "{" (str.at var11 882)))
(assert (= "N" (str.at var10 404)))
(assert (= "E" (str.at var21 909)))
(assert (= "z" (str.at var38 650)))
(assert (= "%" (str.at var58 439)))
(assert (= "n" (str.at var17 348)))
(assert (= "2" (str.at var49 539)))
(assert (= ")" (str.at var8 85)))
(assert (= "C" (str.at var30 371)))
(assert (= "_" (str.at var14 58)))
(assert (= "t" (str.at var55 409)))
(assert (= "q" (str.at var24 43)))
(assert (= "r" (str.at var45 520)))
(assert (= "i" (str.at var14 437)))
(assert (= "S" (str.at var34 457)))
(check-sat)
(get-model)